num_bands        = 20
num_wann         = 2
conv_tol         = 1.0d-9
conv_window      = 20

dis_win_max      = 19.2d0
dis_win_min      = -10.0d0
dis_froz_max     = 2.5d0   # Enter Fermi energy here
dis_froz_min     = -2.0d0
dis_num_iter     = 300
num_iter         = 10
num_print_cycles = 40

guiding_centres  = .true.

wannier_plot = true
wannier_plot_supercell = 7 7 1
write_hr = .true.

bands_plot = true
bands_plot_format = xmgrace

begin kpoint_path
G 0.0000000000     0.0000000000     0.0000000000  M 0.5000000000    -0.5000000000     0.0000000000
M 0.5000000000    -0.5000000000     0.0000000000  K 0.6666666667    -0.3333333333     0.0000000000
K 0.6666666667    -0.3333333333     0.0000000000  G 0.0000000000     0.0000000000     0.0000000000
end kpoint_path

! SYSTEM

begin unit_cell_cart
  2.462300   0.000000   0.000000
 -1.231150   2.132414   0.000000
  0.000000   0.000000  10.000000
end unit_cell_cart

! KPOINTS
mp_grid : 12 12 1

begin kpoints
  0.00000000  0.00000000  0.00000000  6.944444e-03 
  0.00000000  0.08333333  0.00000000  6.944444e-03 
  0.00000000  0.16666667  0.00000000  6.944444e-03 
  0.00000000  0.25000000  0.00000000  6.944444e-03 
  0.00000000  0.33333333  0.00000000  6.944444e-03 
  0.00000000  0.41666667  0.00000000  6.944444e-03 
  0.00000000  0.50000000  0.00000000  6.944444e-03 
  0.00000000  0.58333333  0.00000000  6.944444e-03 
  0.00000000  0.66666667  0.00000000  6.944444e-03 
  0.00000000  0.75000000  0.00000000  6.944444e-03 
  0.00000000  0.83333333  0.00000000  6.944444e-03 
  0.00000000  0.91666667  0.00000000  6.944444e-03 
  0.08333333  0.00000000  0.00000000  6.944444e-03 
  0.08333333  0.08333333  0.00000000  6.944444e-03 
  0.08333333  0.16666667  0.00000000  6.944444e-03 
  0.08333333  0.25000000  0.00000000  6.944444e-03 
  0.08333333  0.33333333  0.00000000  6.944444e-03 
  0.08333333  0.41666667  0.00000000  6.944444e-03 
  0.08333333  0.50000000  0.00000000  6.944444e-03 
  0.08333333  0.58333333  0.00000000  6.944444e-03 
  0.08333333  0.66666667  0.00000000  6.944444e-03 
  0.08333333  0.75000000  0.00000000  6.944444e-03 
  0.08333333  0.83333333  0.00000000  6.944444e-03 
  0.08333333  0.91666667  0.00000000  6.944444e-03 
  0.16666667  0.00000000  0.00000000  6.944444e-03 
  0.16666667  0.08333333  0.00000000  6.944444e-03 
  0.16666667  0.16666667  0.00000000  6.944444e-03 
  0.16666667  0.25000000  0.00000000  6.944444e-03 
  0.16666667  0.33333333  0.00000000  6.944444e-03 
  0.16666667  0.41666667  0.00000000  6.944444e-03 
  0.16666667  0.50000000  0.00000000  6.944444e-03 
  0.16666667  0.58333333  0.00000000  6.944444e-03 
  0.16666667  0.66666667  0.00000000  6.944444e-03 
  0.16666667  0.75000000  0.00000000  6.944444e-03 
  0.16666667  0.83333333  0.00000000  6.944444e-03 
  0.16666667  0.91666667  0.00000000  6.944444e-03 
  0.25000000  0.00000000  0.00000000  6.944444e-03 
  0.25000000  0.08333333  0.00000000  6.944444e-03 
  0.25000000  0.16666667  0.00000000  6.944444e-03 
  0.25000000  0.25000000  0.00000000  6.944444e-03 
  0.25000000  0.33333333  0.00000000  6.944444e-03 
  0.25000000  0.41666667  0.00000000  6.944444e-03 
  0.25000000  0.50000000  0.00000000  6.944444e-03 
  0.25000000  0.58333333  0.00000000  6.944444e-03 
  0.25000000  0.66666667  0.00000000  6.944444e-03 
  0.25000000  0.75000000  0.00000000  6.944444e-03 
  0.25000000  0.83333333  0.00000000  6.944444e-03 
  0.25000000  0.91666667  0.00000000  6.944444e-03 
  0.33333333  0.00000000  0.00000000  6.944444e-03 
  0.33333333  0.08333333  0.00000000  6.944444e-03 
  0.33333333  0.16666667  0.00000000  6.944444e-03 
  0.33333333  0.25000000  0.00000000  6.944444e-03 
  0.33333333  0.33333333  0.00000000  6.944444e-03 
  0.33333333  0.41666667  0.00000000  6.944444e-03 
  0.33333333  0.50000000  0.00000000  6.944444e-03 
  0.33333333  0.58333333  0.00000000  6.944444e-03 
  0.33333333  0.66666667  0.00000000  6.944444e-03 
  0.33333333  0.75000000  0.00000000  6.944444e-03 
  0.33333333  0.83333333  0.00000000  6.944444e-03 
  0.33333333  0.91666667  0.00000000  6.944444e-03 
  0.41666667  0.00000000  0.00000000  6.944444e-03 
  0.41666667  0.08333333  0.00000000  6.944444e-03 
  0.41666667  0.16666667  0.00000000  6.944444e-03 
  0.41666667  0.25000000  0.00000000  6.944444e-03 
  0.41666667  0.33333333  0.00000000  6.944444e-03 
  0.41666667  0.41666667  0.00000000  6.944444e-03 
  0.41666667  0.50000000  0.00000000  6.944444e-03 
  0.41666667  0.58333333  0.00000000  6.944444e-03 
  0.41666667  0.66666667  0.00000000  6.944444e-03 
  0.41666667  0.75000000  0.00000000  6.944444e-03 
  0.41666667  0.83333333  0.00000000  6.944444e-03 
  0.41666667  0.91666667  0.00000000  6.944444e-03 
  0.50000000  0.00000000  0.00000000  6.944444e-03 
  0.50000000  0.08333333  0.00000000  6.944444e-03 
  0.50000000  0.16666667  0.00000000  6.944444e-03 
  0.50000000  0.25000000  0.00000000  6.944444e-03 
  0.50000000  0.33333333  0.00000000  6.944444e-03 
  0.50000000  0.41666667  0.00000000  6.944444e-03 
  0.50000000  0.50000000  0.00000000  6.944444e-03 
  0.50000000  0.58333333  0.00000000  6.944444e-03 
  0.50000000  0.66666667  0.00000000  6.944444e-03 
  0.50000000  0.75000000  0.00000000  6.944444e-03 
  0.50000000  0.83333333  0.00000000  6.944444e-03 
  0.50000000  0.91666667  0.00000000  6.944444e-03 
  0.58333333  0.00000000  0.00000000  6.944444e-03 
  0.58333333  0.08333333  0.00000000  6.944444e-03 
  0.58333333  0.16666667  0.00000000  6.944444e-03 
  0.58333333  0.25000000  0.00000000  6.944444e-03 
  0.58333333  0.33333333  0.00000000  6.944444e-03 
  0.58333333  0.41666667  0.00000000  6.944444e-03 
  0.58333333  0.50000000  0.00000000  6.944444e-03 
  0.58333333  0.58333333  0.00000000  6.944444e-03 
  0.58333333  0.66666667  0.00000000  6.944444e-03 
  0.58333333  0.75000000  0.00000000  6.944444e-03 
  0.58333333  0.83333333  0.00000000  6.944444e-03 
  0.58333333  0.91666667  0.00000000  6.944444e-03 
  0.66666667  0.00000000  0.00000000  6.944444e-03 
  0.66666667  0.08333333  0.00000000  6.944444e-03 
  0.66666667  0.16666667  0.00000000  6.944444e-03 
  0.66666667  0.25000000  0.00000000  6.944444e-03 
  0.66666667  0.33333333  0.00000000  6.944444e-03 
  0.66666667  0.41666667  0.00000000  6.944444e-03 
  0.66666667  0.50000000  0.00000000  6.944444e-03 
  0.66666667  0.58333333  0.00000000  6.944444e-03 
  0.66666667  0.66666667  0.00000000  6.944444e-03 
  0.66666667  0.75000000  0.00000000  6.944444e-03 
  0.66666667  0.83333333  0.00000000  6.944444e-03 
  0.66666667  0.91666667  0.00000000  6.944444e-03 
  0.75000000  0.00000000  0.00000000  6.944444e-03 
  0.75000000  0.08333333  0.00000000  6.944444e-03 
  0.75000000  0.16666667  0.00000000  6.944444e-03 
  0.75000000  0.25000000  0.00000000  6.944444e-03 
  0.75000000  0.33333333  0.00000000  6.944444e-03 
  0.75000000  0.41666667  0.00000000  6.944444e-03 
  0.75000000  0.50000000  0.00000000  6.944444e-03 
  0.75000000  0.58333333  0.00000000  6.944444e-03 
  0.75000000  0.66666667  0.00000000  6.944444e-03 
  0.75000000  0.75000000  0.00000000  6.944444e-03 
  0.75000000  0.83333333  0.00000000  6.944444e-03 
  0.75000000  0.91666667  0.00000000  6.944444e-03 
  0.83333333  0.00000000  0.00000000  6.944444e-03 
  0.83333333  0.08333333  0.00000000  6.944444e-03 
  0.83333333  0.16666667  0.00000000  6.944444e-03 
  0.83333333  0.25000000  0.00000000  6.944444e-03 
  0.83333333  0.33333333  0.00000000  6.944444e-03 
  0.83333333  0.41666667  0.00000000  6.944444e-03 
  0.83333333  0.50000000  0.00000000  6.944444e-03 
  0.83333333  0.58333333  0.00000000  6.944444e-03 
  0.83333333  0.66666667  0.00000000  6.944444e-03 
  0.83333333  0.75000000  0.00000000  6.944444e-03 
  0.83333333  0.83333333  0.00000000  6.944444e-03 
  0.83333333  0.91666667  0.00000000  6.944444e-03 
  0.91666667  0.00000000  0.00000000  6.944444e-03 
  0.91666667  0.08333333  0.00000000  6.944444e-03 
  0.91666667  0.16666667  0.00000000  6.944444e-03 
  0.91666667  0.25000000  0.00000000  6.944444e-03 
  0.91666667  0.33333333  0.00000000  6.944444e-03 
  0.91666667  0.41666667  0.00000000  6.944444e-03 
  0.91666667  0.50000000  0.00000000  6.944444e-03 
  0.91666667  0.58333333  0.00000000  6.944444e-03 
  0.91666667  0.66666667  0.00000000  6.944444e-03 
  0.91666667  0.75000000  0.00000000  6.944444e-03 
  0.91666667  0.83333333  0.00000000  6.944444e-03 
  0.91666667  0.91666667  0.00000000  6.944444e-03 
end kpoints

begin atoms_frac
C  0.333333333  0.666666666  0.500000000
C  0.666666666  0.333333333  0.500000000
end atoms_frac

begin projections
C:pz
end projections
